c ====================[ Coprocessor 7.1.0                    v7.1.0-dirty ]================================
c | Norbert Manthey. The use of the tool is limited to research only!                                     |
c | Contributors:                                                                                         |
c |     Kilian Gebhard                                                                                    |
c |     Lucas Kahlert, Franziska Krüger, Aaron Stephan                                                    |
c ============================[ Problem Statistics ]=======================================================
c |                                                                                                       |
c |  Number of variables:           320                                                                  |
c |  Number of clauses:            1760                                                                   |
c |  Parse time:                   0.00 s                                                                 |
c [STAT] CP3 0.016368 s-ppTime, 0 s-ipTime, 0.016367 s-ppwTime, 0 s-ipwTime, 9 MB, ok 0.000718 s-ohTime, 
c [STAT] CP3(2) 2761 cls, 0 learnts, -1001 rem-cls, 0 rem-learnts, 
c [STAT] UP 8e-06 s, 0 units, 0 cls, 0 lits
c [STAT] SuSi(1) 0.000576 s, 2 cls,  with 7 lits, 1 strengthed 
c [STAT] SuSi(2) 16246 subs-steps, 23252 strenght-steps, 0 increases, 0.001147s strengthening 
c [STAT] EE 0.002183 s, 0 steps 0 ee-lits 0 removedCls, 0 removedSubCls,
c [STAT] EE-gate 0.000139 s, 0 steps, 0.00173 extractGateTime, 
c [STAT] BVE(1) 0.000827 s, 0.000158 s spent on subsimp, 40 vars tested, 40 anticipations, 559 vars skipped, 3075 checks, 
c [STAT] BVE(2) 503 rem cls, with 1564 lits, 0 learnts rem, with 0 lits, 1506 new cls, with 6220 lits, 0 new learnts, with 0 lits, 
c [STAT] BVE(3) 36 vars eliminated, 0 units enqueued, 0 BC removed, with 0 lits, 0 blocked learnts removed, with 0 lits, 
c [STAT] BVE(4) 0 gateDefs, 0 usedGates, 0 gateSeconds, 
c [STAT] BVE(5) 34 incElims, 0 keepElims, 2 decElims, 1003 totalAdds,
c [STAT] UNHIDE 0.00178 s, 0 cls, 0 totalLits, 0 lits 
c [STAT] UNHIDE(2) 1e-05 prSecs, 15 prSteps, 0 L1units, 0 L2units, 0 L3units, 0 L4units, 0 L5units, 
c [STAT] UNHIDE(3) 0 EE-checks, 0 EE-cands, 0 EEs 
c [STAT] XOR 0.001355s, 0.001272 parse-s, 6.2e-05 reason-s, 
c [STAT] XOR(2) 0 xors, 0 subXors, 0 resXors, 0 clauses, 0 resClauses, 0 resTauts, 0 resStrength, 4517 findChecks, 
c [STAT] XOR(3) 0 steps, 640 empties, 0 listUnits, 0 useLists, 0 xorUnits, 0 eqs, 
c [STAT] XOR(4) 2758 participating, 0.844717 ratio, 0 simDecisions, 0 xorProps, 0 clsProps, 
c [STAT] BCE 0.001733 seconds, 20254 steps, 1136 testLits, 0 remBCE, 0 BCMs, 0 BCMcands, 0 BCMlits, 
c [STAT] CLE 0 remCLE, 0 cleUnits, 
c [STAT] BCE-CLA 0 seconds, 0 steps, 0 testLits, 0 extClss, 0 extLits, 0 possibles, 
c [STAT] FM 0.00569 s, 0.000193 amo-s, 0.00777 fm-s, 0.001126 amt-s, 0 amos, 0 amts, 0 sameUnits, 0 deducedUnits, 0 propUnits, 0 cls, 0 steps, 27825 searchSteps, 0 addDups, 
c [STAT] FM(2) 0 irregulars, 0 pureAmoLits, 0 diff, 0 discards, 0 addedCs, 0 removedCs, 0 newAmos, 0 discardedNewAmos, 
c [STAT] FM(3) 0 newAmoBinCls, 0 newCls, 0 newAlos, 0 newAlks, 0 duplicates, 0 garbageCollecst, 
c [STAT] FM(4) 9e-06 2PrdTime, 0 2PrAmos, 0 2PrLits, 3e-06 dedAloTime, 0 dedAlos, 
c [STAT] FM(5) time: 0.004166 s,steps: 27510 cards: 0 failed: 4519 extLits: 0 redDegree: 0 probes: 5134 conflictProbes: 0 savedPreCls: 0 savedPostCls: 0 units: 12400
c [STAT] DENSE 36 gaps
c |  Simplification time:          0.02 s                                                                 |
c |                                                                                                       |
c ==============================[ Writing DIMACS ]=========================================================
c =============================[ Writing Undo Info ]=======================================================
c write undo for 263 clauses and 0 units
c preprocessed 0 seconds
c starting sparrow solver
c Instance name       :  /home/lorenz/SAT2018/s2r_bin/tmp/cp_tmpCNF_47809
c Number of variables :  284
c Number of literals  :  568
c Number of Clauses   :  2761
c MaxNumOccurences    :  75
c MaxClauseSize       :  5
c MinClauseSize       :  3
c Ratio               :  9.7218
c Parameter setting   :  5 SAT

c Sparrow 2014 Parameteres: 
c c1                  : 2.8500
c c2                  : 4
c c3                  : 75000
c smoothing prob.     : 1.000
c seed                : 0
c XOR implementation  : yes
c using:              : random clause selection
c maxTries            : 9223372036854775807
c maxFlips            : 500000000
c timeout             : 900sec
c luby restarts       : yes
c luby base           : 262144
c keep assignement    : yes
c sp sequence:        : 0.000, 0.100, 0.600, 1.000, 0.900, 0.600, 0.800, 0.600, 0.000, 
c -->Starting solver  : 

c UNKNOWN best(   1) current(   3) (4.53000        sec)
c EndStatistics:
c numFlips                      : 13722880 
c numProbWalks                  : 12223125  (89.07%) 
c gradientWalks                 : 1499755   (10.93%) 
c numSmooth                     : 0         (0.00%) 
c numWeight                     : 0         (0.00%) 
c Try CPU Time                  : 4.530   
c totalTries                    : 508      
c totalFlips                    : 500000000
c flips/sec                     : 2521687 
c Total CPU Time                : 198.280 sec
c solved 198 seconds
c parse model from /home/lorenz/SAT2018/s2r_bin/tmp/cp_model_47809
c WARNING: could not find any solution information!
c opened var map /home/lorenz/SAT2018/s2r_bin/tmp/cp_undo_47809.map for reading ... 
c use Riss 7.1
c [STAT] CP3 0.009395 s-ppTime, 0 s-ipTime, 0.00939487 s-ppwTime, 0 s-ipwTime, 9 MB, ok 0.000324 s-ohTime, 
c [STAT] CP3(2) 2607 cls, 0 learnts, -847 rem-cls, 0 rem-learnts, 
c [STAT] UP 4e-06 s, 0 units, 0 cls, 0 lits
c [STAT] SuSi(1) 0.00022 s, 2 cls,  with 7 lits, 1 strengthed 
c [STAT] SuSi(2) 14827 subs-steps, 31130 strenght-steps, 0 increases, 0.000509s strengthening 
c [STAT] EE 0.000428 s, 0 steps 0 ee-lits 0 removedCls, 0 removedSubCls,
c [STAT] EE-gate 3.1e-05 s, 0 steps, 0.000326 extractGateTime, 
c [STAT] BVE(1) 0.001383 s, 0.000789 s spent on subsimp, 48 vars tested, 48 anticipations, 540 vars skipped, 2804 checks, 
c [STAT] BVE(2) 549 rem cls, with 1689 lits, 0 learnts rem, with 0 lits, 1398 new cls, with 5791 lits, 0 new learnts, with 0 lits, 
c [STAT] BVE(3) 48 vars eliminated, 0 units enqueued, 0 BC removed, with 0 lits, 0 blocked learnts removed, with 0 lits, 
c [STAT] BVE(4) 0 gateDefs, 0 usedGates, 3.3e-05 gateSeconds, 
c [STAT] BVE(5) 46 incElims, 0 keepElims, 2 decElims, 849 totalAdds,
c [STAT] UNHIDE 0.000782 s, 0 cls, 0 totalLits, 0 lits 
c [STAT] UNHIDE(2) 0 prSecs, 0 prSteps, 0 L1units, 0 L2units, 0 L3units, 0 L4units, 0 L5units, 
c [STAT] UNHIDE(3) 0 EE-checks, 0 EE-cands, 0 EEs 
c [STAT] XOR 0.000821s, 0.000778 parse-s, 3.1e-05 reason-s, 
c [STAT] XOR(2) 0 xors, 0 subXors, 0 resXors, 0 clauses, 0 resClauses, 0 resTauts, 0 resStrength, 4361 findChecks, 
c [STAT] XOR(3) 0 steps, 640 empties, 0 listUnits, 0 useLists, 0 xorUnits, 0 eqs, 
c [STAT] XOR(4) 2602 participating, 0.823939 ratio, 0 simDecisions, 0 xorProps, 0 clsProps, 
c [STAT] BCE 0.001633 seconds, 19130 steps, 1088 testLits, 0 remBCE, 0 BCMs, 0 BCMcands, 0 BCMlits, 
c [STAT] CLE 0 remCLE, 0 cleUnits, 
c [STAT] BCE-CLA 0 seconds, 0 steps, 0 testLits, 0 extClss, 0 extLits, 0 possibles, 
c [STAT] FM 0.003632 s, 0.000103 amo-s, 0.005124 fm-s, 0.000654 amt-s, 0 amos, 0 amts, 0 sameUnits, 0 deducedUnits, 0 propUnits, 0 cls, 0 steps, 26845 searchSteps, 0 addDups, 
c [STAT] FM(2) 0 irregulars, 0 pureAmoLits, 0 diff, 0 discards, 0 addedCs, 0 removedCs, 0 newAmos, 0 discardedNewAmos, 
c [STAT] FM(3) 0 newAmoBinCls, 0 newCls, 0 newAlos, 0 newAlks, 0 duplicates, 0 garbageCollecst, 
c [STAT] FM(4) 3e-06 2PrdTime, 0 2PrAmos, 0 2PrLits, 1e-06 dedAloTime, 0 dedAlos, 
c [STAT] FM(5) time: 0.002761 s,steps: 26459 cards: 0 failed: 4366 extLits: 0 redDegree: 0 probes: 4966 conflictProbes: 1 savedPreCls: 0 savedPostCls: 0 units: 11944
c [STAT] DENSE 48 gaps
c Riss 7.1 used 2 seconds with exit code 10
c pp-time: 0 SLS-time: 198  CDCL-time: 2
c solved with: Riss 7.1
 c
c SparrowToRiss 2018
c Adrian Balint, Norbert Manthey
c
c undo: /home/lorenz/SAT2018/s2r_bin/tmp/cp_undo_47809 tmpCNF: /home/lorenz/SAT2018/s2r_bin/tmp/cp_tmpCNF_47809 model: /home/lorenz/SAT2018/s2r_bin/tmp/cp_model_47809 realModel: /home/lorenz/SAT2018/s2r_bin/tmp/model_47809
c preprocessed 0 seconds with exit code 0
c not solved by preprocessor -- do search
c post-process with coprocessor
c WARNING: for repeatability, setting FPU to use double precision
c =================[ riss (core) 7.1.0                    v7.1.0-dirty ]===================================
c | Norbert Manthey. The use of the tool is limited to research only!                                     |
c | Based on Minisat 2.2 and Glucose 2.1  -- thanks!                                                      |
c | Contributors:                                                                                         |
c |      Kilian Gebhardt                                                                                  |
c |      Lucas Kahlert, Franziska Krüger, Aaron Stephan                                                   |
c ============================[ Problem Statistics ]=======================================================
c |                                                                                                       |
c |  Number of variables:                320                                                              |
c |  Number of clauses:                 1760                                                              |
c |  Number of total literals:          5280                                                              |
c |  Parse time:                        0.00 s                                                            |
c |                                                                                                       |
c ========================================[ MAGIC CONSTANTS ]==============================================
c | Constants are supposed to work well together :-)                                                      |
c | however, if you find better choices, please let us known...                                           |
c |-------------------------------------------------------------------------------------------------------|
c |                                |                                |                                     |
c | - Restarts:                    | - Reduce Clause DB:            | - Minimize Asserting:               |
c |   * LBD Queue    :     50      |   * First     :   4000         |    * size <  30                     |
c |   * Trail  Queue :   5000      |   * Inc       :    300         |    * lbd  <   6                     |
c |   * K            :   0.80      |   * Special   :   1000         |                                     |
c |   * R            :   1.40      |   * Protected :  (lbd)< 30     |                                     |
c |                                |                                |                                     |
c =========================================================================================================
c =========================================================================================================
c | solve clauses:         2607  solve variables:          272                                            |
c =========================================================================================================
c ==================================[ Search Statistics (every  10000 conflicts) ]=========================
c |                                                                                                       |
c |          RESTARTS           |          ORIGINAL         |              LEARNT              | Progress |
c |       NB   Blocked  Avg Cfc |    Vars  Clauses Literals |   Red   Learnts    LBD2  Removed |          |
c =========================================================================================================
c |        9         0     1111 |     320     2607     9374 |     1     8037       33     1962 |  0.001 % | 
c |       13       159     1538 |     320     2607     9374 |     3     7138       61    12861 |  0.001 % | 
c |       17       309     1764 |     320     2607     9374 |     3    17138       76    12861 |  0.001 % | 
c |       28       448     1428 |     320     2607     9374 |     4    17953       88    22046 |  0.001 % | 
c =========================================================================================================
c Tinimt-Ratios: ratioCpW: 0.92 ,overhead/Total 0.32 0.31 
c Timing(cpu,wall, in s): total: 1.40 1.52 ,prop: 0.78 0.87 ,analysis: 0.16 0.18 ,ext.Res.: 0.00 0.00 ,reduce: 0.01 0.01 ,overhead 0.45 0.47
c PP-Timing(cpu,wall, in s): preprocessing( 1 ): 0.01 0.01 ,inprocessing (0 ): 0.00 0.00
c Trivial Polarity: True: 0  False: 0
c Learnt At Level 1: 0  Multiple: 0 Units: 0
c LAs: 0.000000 laSeconds 0 LA assigned: 0 tabus: 0, failedLas: 0, maxEvery 0, eeV: 0 eeL: 0 
c otfss: 0 (l1: 0 ),cls: 0 ,units: 0 ,binaries: 0, eagerCandidates: 0
c learning: 41865 cls, 12.649803 avg. size, 8.563048 avg. LBD, 34 maxSize
c res.ext.res.: 0 rer, 0 rerSizeCands, 0 sizeReject, 0 patternReject, 0 bloomReject, 0 maxSize, 0.00 avgSize, 0.00 totalLits, 0 gates
c ER rewrite: 0 cls, 0 lits
c i.cls.strengthening: 0.00 seconds, 0 calls, 0 candidates, 0 droppedBefore, 0 shrinked, 0 shrinkedLits
c bi-asserting: 0 pre-Mini, 0 post-Mini, 0.000 rel-pre, 0.000 rel-post
c search-UHLE: 0 attempts, 0 rem-lits
c revMin: 7750 tries 24 succesful 24 dropped 0 cut 24 conflicts
c decisionClauses: 0
c IntervalRestarts: 0
c partial restarts: 0 saved decisions: 0 saved propagations: 0 recursives: 7
c uhd probe: 0.000000 s, 0 L2units, 0 L3units, 0 L4units
c LCM: 0.292414 s, 2 nbLCM, 7733 LCMclsAttempts, 2326 nbLCMclsSuccess, 2369 npConflLCMlits, 6397 nbLCMlits, 0 falsified, 0 positiveDrop, 6112 litsR1, 285 litsR2
c restarts              : 29 (1443 conflicts in avg)
c blocked restarts      : 475 (multiple: 9) 
c last block at restart : 29
c nb ReduceDB           : 4
c nb removed Clauses    : 22046
c nb learnts DL2        : 92
c nb learnts size 2     : 0
c nb learnts size 1     : 0
c conflicts             : 41865          (29962 /sec)
c decisions             : 49765          (0.00 % random) (35616 /sec)
c propagations          : 2063828        (1477033 /sec)
c conflict literals     : 529608         (23.98 % deleted)
c nb reduced Clauses    : 0
c Memory used           : 9.00 MB
c CPU time              : 1.39728 s
s SATISFIABLE
v 1 -2 -3 -4 -5 -6 7 8 9 10 -11 -12 13 -14 -15 -16 -17 -18 -19 20 -21 -22 23 24 -25 26 -27 28 -29 30 -31 -32 -33 34 -35 36 -37 38 39 40 -41 -42 43 44 -45 46 47 -48 -49 -50 51 -52 53 -54 55 -56 -57 -58 -59 60 -61 -62 -63 64 -65 66 -67 -68 69 -70 71 -72 -73 74 -75 76 77 78 79 -80 -81 -82 -83 84 85 86 87 -88 -89 90 -91 -92 -93 -94 -95 -96 -97 -98 -99 -100 -101 102 103 -104 105 106 -107 -108 109 -110 111 112 -113 114 -115 -116 -117 118 119 -120 -121 -122 -123 -124 -125 -126 127 -128 -129 -130 -131 132 -133 134 -135 -136 137 -138 -139 -140 141 -142 -143 144 -145 146 -147 148 -149 150 -151 -152 153 154 -155 156 157 158 159 -160 -161 162 163 164 -165 -166 -167 -168 -169 170 171 172 -173 174 -175 -176 177 178 179 180 -181 -182 -183 184 -185 186 -187 -188 -189 -190 191 -192 -193 -194 -195 196 -197 198 199 200 -201 202 -203 204 -205 206 207 208 -209 -210 -211 212 -213 214 215 -216 -217 -218 -219 -220 221 222 223 -224 225 -226 227 -228 -229 230 231 -232 -233 234 -235 -236 237 238 -239 -240 241 -242 -243 244 245 -246 247 248 249 -250 -251 -252 -253 -254 255 -256 -257 -258 -259 -260 261 262 263 -264 265 -266 267 -268 -269 270 -271 -272 273 274 -275 -276 -277 -278 -279 280 -281 -282 283 284 285 -286 -287 -288 -289 290 291 292 -293 -294 295 296 -297 -298 299 -300 -301 -302 -303 -304 -305 -306 307 308 -309 310 -311 -312 313 314 315 -316 -317 318 -319 -320 0

